50
19497

218 919
855 436
38 569
28 253
580 980
518 49
260 878
732 298
637 666
565 483
811 14
849 321
232 351
293 894
239 940
302 429
159 881
404 303
302 358
185 14
262 312
848 394
450 781
816 209
189 563
274 364
549 44
743 960
230 2
398 266
726 620
396 413
257 738
736 485
987 276
833 458
377 921
537 651
888 917
443 225
63 704
842 665
328 535
720 624
667 568
818 372
341 243
805 81
5 857
95 893
